NAME maximalClique
OBJSENSE MAX
ROWS
 N  OBJ
 L  R0      
 L  R1      
 L  R2      
 L  R3      
 L  R4      
 L  R5      
 L  R6      
 L  R7      
COLUMNS
    MARKER    'MARKER'                 'INTORG'
    C[0]      OBJ       1
    C[0]      R0        1
    C[0]      R1        1
    C[0]      R2        1
    C[1]      OBJ       1
    C[1]      R3        1
    C[1]      R5        1
    C[2]      OBJ       1
    C[2]      R0        1
    C[2]      R4        1
    C[2]      R6        1
    C[3]      OBJ       1
    C[3]      R1        1
    C[3]      R7        1
    C[4]      OBJ       1
    C[4]      R2        1
    C[4]      R3        1
    C[4]      R4        1
    C[5]      OBJ       1
    C[5]      R5        1
    C[5]      R6        1
    C[5]      R7        1
    MARKER    'MARKER'                 'INTEND'
RHS
    RHS1      R0        1
    RHS1      R1        1
    RHS1      R2        1
    RHS1      R3        1
    RHS1      R4        1
    RHS1      R5        1
    RHS1      R6        1
    RHS1      R7        1
BOUNDS
 BV BND1      C[0]    
 BV BND1      C[1]    
 BV BND1      C[2]    
 BV BND1      C[3]    
 BV BND1      C[4]    
 BV BND1      C[5]    
ENDATA
